8
0 87 16 36 93 22 28 60 
87 0 27 100000 73 100000 69 30 
16 27 0 31 24 36 3 59 
36 100000 31 0 68 57 43 74 
93 73 24 68 0 20 100000 99 
22 100000 36 57 20 0 100000 71 
28 69 3 43 100000 100000 0 27 
60 30 59 74 99 71 27 0 
